


*************************************************************

   NEOS Server Version 6.0
   Job#     : 18279370
   Password : ihTFBLKE
   User     : None

   Disclaimer:

   This information is provided without any express or
   implied warranty. In particular, there is no warranty
   of any kind concerning the fitness of this
   information for any particular purpose.

   Announcements:
*************************************************************

Running:

  Job #    Cat   Solver     Input  Submitted    Started      Elapsed  Email  Host 
-------------------------------------------------------------------------------------------------------
18279304   cp    Knitro     AMPL   01/25 05:00  01/25 05:00  0:59:05  jeong  prod-sub-1.neos-server.org
18279330   lp    cplex      AMPL   01/25 05:54  01/25 05:54  0:05:10  TWlCv  prod-sub-1.neos-server.org
18279366   lp    cplex      AMPL   01/25 05:55  01/25 05:55  0:04:22  qvZSQ  prod-sub-1.neos-server.org

Queued:

  Job #   Cat   Solver     Input  Submitted
---------------------------------------------------
18279370  milp  Gurobi     AMPL   01/25 05:59

Job 18279370 dispatched
password: ihTFBLKE
---------- Begin Solver Output -----------
Condor submit: 'neos.submit'
Condor submit: 'watchdog.submit'
Job submitted to NEOS HTCondor pool.
You are using the solver gurobi_ampl.
Checking ampl.mod for gurobi_options...
Checking ampl.com for gurobi_options...
Executing AMPL.
processing data.
processing commands.
Executing on prod-exec-1.neos-server.org
N = 4


"option presolve 0;" used, but "option presolve 10;" might work better.
4 variables, all nonlinear
0 algebraic constraints
3 logical constraints
1 linear objective; 4 nonzeros.

Gurobi 12.0.3:   tech:threads = 4
  pre:solve = 2
  alg:iisfind = 1
Set parameter LogToConsole to value 1
  tech:outlev = 1

AMPL MP initial flat model has 4 variables (4 integer, 0 binary);
Objectives: 1 linear; 
Constraints:  8 linear;
Logical expressions:  3 alldiff;

AMPL MP final model has 64 variables (15 integer, 48 binary);
Objectives: 1 linear; 
Constraints:  42 linear;


Set parameter InfUnbdInfo to value 1
Gurobi Optimizer version 12.0.3 build v12.0.3rc0 (linux64 - "Rocky Linux 8.10 (Green Obsidian)")

CPU model: Intel(R) Xeon(R) CPU E5-2698 v3 @ 2.30GHz, instruction set [SSE2|AVX|AVX2]
Thread count: 32 physical cores, 64 logical processors, using up to 4 threads

Non-default parameters:
InfUnbdInfo  1
Presolve  2
Threads  4

Optimize a model with 42 rows, 64 columns and 164 nonzeros
Model fingerprint: 0x5ad2a188
Variable types: 12 continuous, 52 integer (0 binary)
Coefficient statistics:
  Matrix range     [1e+00, 8e+00]
  Objective range  [0e+00, 0e+00]
  Bounds range     [1e+00, 5e+00]
  RHS range        [1e+00, 4e+00]
Presolve removed 42 rows and 64 columns
Presolve time: 0.00s
Presolve: All rows and columns removed

Explored 0 nodes (0 simplex iterations) in 0.00 seconds (0.00 work units)
Thread count was 1 (of 64 available processors)

Solution count 1: 0 

Optimal solution found (tolerance 1.00e-04)
Best objective 0.000000000000e+00, best bound 0.000000000000e+00, gap 0.0000%
Gurobi 12.0.3: optimal solution; objective 0
0 simplex iterations
Solution
========
 1  3
 2  1
 3  4
 4  2
Job completed ... awaiting results.
